c turning on binary mode checking
c parsing input formula with 259840 variables and 1039924 clauses
c finished parsing, read 23328061 bytes from proof file
c detected empty clause; start verification via backward checking
c 4010 of 1039924 clauses in core                            
c 4399 of 607850 lemmas in core using 18702 resolution steps
c 0 RAT lemmas in core; 138 redundant literals in core lemmas
s VERIFIED
c verification time: 2.221 seconds
